solving instance uflp nlass gunluk ../../../../../instances/uflp/gunluk/gunluk-40-80-1.txt sinabc3
Couenne 0.5.8 -- an Open-Source solver for Mixed Integer Nonlinear Optimization
Mailing list: couenne@list.coin-or.org
Instructions: http://www.coin-or.org/Couenne
couenne: 
ANALYSIS TEST: Reformulating problem: 58.4 seconds
NLP0012I 
              Num      Status      Obj             It       time                 Location
NLP0014I             1      FAILED 350.69978     3000 745.63786
NLP0014I             1      FAILED 350.69978     3000 699.81871   resolve robustness
NLP3006W Warning : continuing branching, while there are unrecovered failures at nodes
Loaded instance "/tmp/jl_1oJmeD/model.nl"
Constraints:         9680
Variables:           9640 (3240 integer)
Auxiliaries:        12881 (0 integer)

Coin0506I Presolve 41600 (-6481) rows, 15960 (-6561) columns and 89440 (-16281) elements
Clp0006I 0  Obj 0 Primal inf 434.41837 (80) Dual inf 1.7376738e+13 (3200)
Clp0006I 433  Obj 0 Primal inf 434.41837 (80) Dual inf 1.7376738e+13 (3200)
Clp0006I 866  Obj 0 Primal inf 434.41837 (80) Dual inf 1.7376738e+13 (3200)
Clp0006I 1299  Obj 0 Primal inf 434.41837 (80) Dual inf 1.7376738e+13 (3200)
Clp0006I 1732  Obj 0 Primal inf 434.41837 (80) Dual inf 1.7376738e+13 (3200)
Clp0006I 2165  Obj 0 Primal inf 434.41837 (80) Dual inf 1.7376738e+13 (3200)
Clp0006I 2598  Obj 0 Primal inf 434.41837 (80) Dual inf 1.7376738e+13 (3200)
Clp0006I 3031  Obj 0 Primal inf 434.41837 (80) Dual inf 1.7376738e+13 (3200)
Clp0006I 3464  Obj 0 Primal inf 434.41837 (80) Dual inf 1.7376738e+13 (3200)
Clp0006I 3897  Obj 0 Primal inf 434.41837 (80) Dual inf 1.7376738e+13 (3200)
Clp0006I 4330  Obj 0 Primal inf 434.41837 (80) Dual inf 1.7376738e+13 (3200)
Clp0006I 4763  Obj 0 Primal inf 434.41837 (80) Dual inf 1.7376738e+13 (3200)
Clp0006I 5196  Obj 0 Primal inf 434.41837 (80) Dual inf 1.7376738e+13 (3200)
Clp0006I 5629  Obj 0 Primal inf 434.41837 (80) Dual inf 1.7376738e+13 (3200)
Clp0006I 6062  Obj 0 Primal inf 434.41837 (80) Dual inf 1.7376738e+13 (3200)
Clp0029I End of values pass after 6400 iterations
Clp0006I 6400  Obj 0 Primal inf 434.41837 (80) Dual inf 1.7376738e+13 (3200)
Clp0006I 6833  Obj 283.58902 Primal inf 288.79032 (85) Dual inf 1.9259307e+13 (3174)
Clp0006I 7266  Obj 305.80919 Primal inf 136.33946 (66) Dual inf 31746477 (2626)
Clp0006I 7699  Obj 307.8273 Dual inf 1031.7205 (261)
Clp0006I 8132  Obj 297.06435 Dual inf 2064.15 (331)
Clp0006I 8565  Obj 265.17526 Dual inf 2214.4095 (286)
Clp0006I 8998  Obj 221.10301 Dual inf 1770.1566 (121)
Clp0006I 9431  Obj 200.70159 Dual inf 2509.8549 (186)
Clp0006I 9864  Obj 168.18338 Dual inf 1247.7628 (127)
Clp0006I 10297  Obj 147.21351 Dual inf 5019.2997 (183)
Clp0006I 10730  Obj 130.40789 Dual inf 6232.8386 (451)
Clp0006I 11163  Obj 78.773265 Dual inf 1721.7963 (189)
Clp0006I 11596  Obj 45.146769 Dual inf 1092.3719 (125)
Clp0006I 12029  Obj 28.967331 Dual inf 218.55754 (46)
Clp0006I 12462  Obj 22.946898 Dual inf 745.48547 (63)
Clp0006I 12895  Obj 16.229137 Dual inf 164.62047 (40)
Clp0006I 13311  Obj 12.024847 Dual inf 171.02162 (34)
Clp0006I 13509  Obj 8.727435
Clp0000I Optimal - objective value 8.727435
Clp0000I Optimal - objective value 8.7274432
Clp0032I Optimal objective 8.727443154 - 13509 iterations time 2.772, Presolve 0.11
Clp0000I Optimal - objective value 8.7274432
NLP Heuristic: NLP0014I             3      INFEAS 0.030752669      115 7.318591
no solution.
Clp0000I Optimal - objective value 8.7274432
Optimality Based BT: 0 improved bounds
Probing: 0 improved bounds
Cbc0013I At root node, 0 cuts changed objective from 8.7274432 to 8.7274432 in 1 passes
Cbc0014I Cut generator 0 (Couenne convexifier cuts) - 0 row cuts average 0.0 elements, 0 column cuts (0 active)
Cbc0020I Exiting on maximum time
Cbc0005I Partial search - best objective 1e+50 (best possible 8.7274432), took 0 iterations and 0 nodes (2088.65 seconds)
Cbc0035I Maximum depth 0, 0 variables fixed on reduced cost

 	"Not finished"

Linearization cuts added at root node:      48081
Linearization cuts added in total:          48081  (separation time: 0.537317s)
Total solve time:                         2091.43s (2091.43s in branch-and-bound)
Lower bound:                              8.72744
Upper bound:                                  inf  (gap: --)
Branch-and-bound nodes:                         0
Stats: /tmp/jl_1oJmeD/model.nl 9640 [var] 3240 [int] 9680 [con] 12881 [aux]  48081 [root]    48081 [tot] 0.537317 [sep]  2091.43 [time]  2091.47 [bb]         8.727443e+00 [lower]         1.000000e+50 [upper]       0 [nodes]
Performance of                           FBBT:	   0.955446s,        4 runs. fix:          0 shrnk:          0 ubd:          0 2ubd:          0 infeas:          0
Performance of                           OBBT:	    7.05735s,        1 runs. fix:          0 shrnk:          0 ubd:          0 2ubd:          0 infeas:          0
ERROR: LoadError: MathOptInterface.GetAttributeNotAllowed{MathOptInterface.ObjectiveBound}: Getting attribute MathOptInterface.ObjectiveBound() cannot be performed: AmplNLWriter.Optimizer does not support getting the attribute MathOptInterface.ObjectiveBound(). You may want to use a `CachingOptimizer` in `AUTOMATIC` mode or you may need to call `reset_optimizer` before doing this operation if the `CachingOptimizer` is in `MANUAL` mode.
Stacktrace:
  [1] get_fallback(model::AmplNLWriter.Optimizer, attr::MathOptInterface.ObjectiveBound)
    @ MathOptInterface ~/.julia/packages/MathOptInterface/gLl4d/src/attributes.jl:409
  [2] get(::AmplNLWriter.Optimizer, ::MathOptInterface.ObjectiveBound)
    @ MathOptInterface ~/.julia/packages/MathOptInterface/gLl4d/src/attributes.jl:390
  [3] _get_model_attribute(model::MathOptInterface.Utilities.CachingOptimizer{AmplNLWriter.Optimizer, MathOptInterface.Utilities.UniversalFallback{MathOptInterface.Utilities.Model{Float64}}}, attr::MathOptInterface.ObjectiveBound)
    @ MathOptInterface.Utilities ~/.julia/packages/MathOptInterface/gLl4d/src/Utilities/cachingoptimizer.jl:865
  [4] get(model::MathOptInterface.Utilities.CachingOptimizer{AmplNLWriter.Optimizer, MathOptInterface.Utilities.UniversalFallback{MathOptInterface.Utilities.Model{Float64}}}, attr::MathOptInterface.ObjectiveBound)
    @ MathOptInterface.Utilities ~/.julia/packages/MathOptInterface/gLl4d/src/Utilities/cachingoptimizer.jl:900
  [5] get(b::MathOptInterface.Bridges.LazyBridgeOptimizer{MathOptInterface.Utilities.CachingOptimizer{AmplNLWriter.Optimizer, MathOptInterface.Utilities.UniversalFallback{MathOptInterface.Utilities.Model{Float64}}}}, attr::MathOptInterface.ObjectiveBound)
    @ MathOptInterface.Bridges ~/.julia/packages/MathOptInterface/gLl4d/src/Bridges/bridge_optimizer.jl:889
  [6] _get_model_attribute(model::MathOptInterface.Utilities.CachingOptimizer{MathOptInterface.Bridges.LazyBridgeOptimizer{MathOptInterface.Utilities.CachingOptimizer{AmplNLWriter.Optimizer, MathOptInterface.Utilities.UniversalFallback{MathOptInterface.Utilities.Model{Float64}}}}, MathOptInterface.Utilities.UniversalFallback{MathOptInterface.Utilities.Model{Float64}}}, attr::MathOptInterface.ObjectiveBound)
    @ MathOptInterface.Utilities ~/.julia/packages/MathOptInterface/gLl4d/src/Utilities/cachingoptimizer.jl:865
  [7] get(model::MathOptInterface.Utilities.CachingOptimizer{MathOptInterface.Bridges.LazyBridgeOptimizer{MathOptInterface.Utilities.CachingOptimizer{AmplNLWriter.Optimizer, MathOptInterface.Utilities.UniversalFallback{MathOptInterface.Utilities.Model{Float64}}}}, MathOptInterface.Utilities.UniversalFallback{MathOptInterface.Utilities.Model{Float64}}}, attr::MathOptInterface.ObjectiveBound)
    @ MathOptInterface.Utilities ~/.julia/packages/MathOptInterface/gLl4d/src/Utilities/cachingoptimizer.jl:900
  [8] _moi_get_result(model::MathOptInterface.Utilities.CachingOptimizer{MathOptInterface.Bridges.LazyBridgeOptimizer{MathOptInterface.Utilities.CachingOptimizer{AmplNLWriter.Optimizer, MathOptInterface.Utilities.UniversalFallback{MathOptInterface.Utilities.Model{Float64}}}}, MathOptInterface.Utilities.UniversalFallback{MathOptInterface.Utilities.Model{Float64}}}, args::MathOptInterface.ObjectiveBound)
    @ JuMP ~/.julia/packages/JuMP/i68GU/src/optimizer_interface.jl:1053
  [9] get(model::JuMP.Model, attr::MathOptInterface.ObjectiveBound)
    @ JuMP ~/.julia/packages/JuMP/i68GU/src/optimizer_interface.jl:1073
 [10] objective_bound(model::JuMP.Model)
    @ JuMP ~/.julia/packages/JuMP/i68GU/src/objective.jl:78
 [11] nl_uflp_nlass(filename::String, cost::Symbol, solver::AmplNLWriter.Optimizer, solver_params::Vector{Any}; solve::Bool, write_nl::Bool, with_cap_constraint::Bool)
    @ IterativePWLB ~/git/ipwlb/code/sources/IterativePWLB/src/nlsolver.jl:885
 [12] top-level scope
    @ ~/git/ipwlb/code/sources/IterativePWLB/test/couenne/uflp_nlass/script.jl:14
in expression starting at /home/ccontard/git/ipwlb/code/sources/IterativePWLB/test/couenne/uflp_nlass/script.jl:14
Generating Gunluk and Lee data file ../../../../../instances/uflp/gunluk/gunluk-40-80-1.txt
